sat
(:added-eqs              39
 :arith-eq-adapter       19
 :arith-diseq            2
 :arith-grobner-calls    1
 :arith-lower            19
 :arith-make-feasible    10
 :arith-max-columns      190
 :arith-max-rows         33
 :arith-nla-add-bounds   3
 :arith-nla-propagate-eq 11
 :arith-upper            34
 :binary-propagations    79
 :decisions              53
 :final-checks           5
 :max-memory             101.66
 :memory                 58.33
 :mk-bool-var            167
 :mk-clause              33
 :mk-clause-binary       447
 :num-allocs             194239431
 :num-checks             1
 :propagations           84
 :rlimit-count           375983
 :sat-mk-clause-2ary     141189
 :sat-mk-clause-nary     188899
 :sat-mk-var             95389
 :sls-arith-steps        219
 :sls-ddfw-flips         456.00
 :sls-ddfw-shifts        148.00
 :sls-num-guided-search  1
 :sls-repair-down        17
 :sls-repair-up          34
 :time                   0.30
 :total-time             0.30)
